
--- Job mincost2.gms Start 10/03/23 13:10:12 44.3.0 8b8fb1cb WEX-WEI x86 64bit/MS Windows
--- Applying:
    C:\GAMS\44\gmsprmNT.txt
--- GAMS Parameters defined
    Input C:\Users\Rocke\OneDrive\Documents\isye524\lectures\mincostex\mincost2.gms
    PageSize 0
    ScrDir C:\Users\Rocke\OneDrive\Documents\isye524\lectures\225a\
    SysDir C:\GAMS\44\
    LogOption 3
    ErrMsg 1
    ErrorLog 99
    IDE 1
    LstTitleLeftAligned 1
Licensee: Introduction to Optimization (CS/ISyE/ECE 524) G230906|0002AS-GEN
          UW-Madison, CS Dept., Fall 2023, Prof. Ferris              DCE850
          C:\GAMS\44\gamslice.txt
          License Admin: Michael C. Ferris, ferris@cs.wisc.edu             
          Course license for use within the course and related course work
Processor information: 1 socket(s), 4 core(s), and 8 thread(s) available
GAMS 44.3.0   Copyright (C) 1987-2023 GAMS Development. All rights reserved
--- Starting compilation
--- mincost2.gms(64) 3 Mb
--- $echo File C:\Users\Rocke\OneDrive\Documents\isye524\lectures\cplex.opt
--- mincost2.gms(69) 3 Mb
--- Starting execution: elapsed 0:00:00.010
--- mincost2.gms(42) 4 Mb
--- Generating LP model mcf
--- mincost2.gms(44) 4 Mb
---   9 rows  12 columns  34 non-zeroes
--- Range statistics (absolute non-zero finite values)
--- RHS       [min, max] : [ 6.000E+00, 1.500E+01] - Zero values observed as well
--- Bound     [min, max] : [ 1.034E+01, 1.499E+01] - Zero values observed as well
--- Matrix    [min, max] : [ 1.000E+00, 6.000E+00]
--- Executing CPLEX (Solvelink=2): elapsed 0:00:00.024

IBM ILOG CPLEX   44.3.0 8b8fb1cb Sep 1, 2023           WEI x86 64bit/MS Window

--- GAMS/CPLEX licensed for continuous and discrete problems.

Reading parameter(s) from "C:\Users\Rocke\OneDrive\Documents\isye524\lectures\cplex.opt"
>>  lpmethod 3
>>  netfind 2
>>  preind 0
>>  names no
Finished reading from "C:\Users\Rocke\OneDrive\Documents\isye524\lectures\cplex.opt"

--- GMO setup time: 0.00s
--- GMO memory 0.50 Mb (peak 0.50 Mb)
--- Dictionary memory 0.00 Mb
--- Cplex 22.1.1.0 link memory 0.00 Mb (peak 0.00 Mb)
--- Starting Cplex

Version identifier: 22.1.1.0 | 2022-11-27 | 9160aff4d
CPXPARAM_Advance                                 0
CPXPARAM_Simplex_Display                         2
CPXPARAM_Preprocessing_Presolve                  0
CPXPARAM_LPMethod                                3
CPXPARAM_Threads                                 1
CPXPARAM_MIP_Display                             4
CPXPARAM_MIP_Pool_Capacity                       0
CPXPARAM_MIP_Tolerances_AbsMIPGap                0
Extracted network with 8 nodes and 11 arcs.
Extraction time = 0.00 sec. (0.00 ticks)

Iteration log . . .
Iteration:     0   Infeasibility     =            40.000000 (40)

Network - Infeasible:  Infeasibility =    7.8366646000e-01
Network time = 0.00 sec. (0.00 ticks)  Iterations = 9 (9)

--- LP status (3): infeasible.
--- Cplex Time: 0.00sec (det. 0.00 ticks)


Model has been proven infeasible

--- Reading solution for model mcf
--- Executing after solve: elapsed 0:00:00.060
--- mincost2.gms(51) 4 Mb
--- Generating LP model mcf
--- mincost2.gms(56) 4 Mb
--- LOOPS iter = iter1
---   9 rows  12 columns  34 non-zeroes
--- Range statistics (absolute non-zero finite values)
--- RHS       [min, max] : [ 6.000E+00, 1.500E+01] - Zero values observed as well
--- Bound     [min, max] : [ 3.334E+00, 1.500E+01] - Zero values observed as well
--- Matrix    [min, max] : [ 1.000E+00, 6.000E+00]
--- Executing CPLEX (Solvelink=2): elapsed 0:00:00.062

IBM ILOG CPLEX   44.3.0 8b8fb1cb Sep 1, 2023           WEI x86 64bit/MS Window

--- GAMS/CPLEX licensed for continuous and discrete problems.

Reading parameter(s) from "C:\Users\Rocke\OneDrive\Documents\isye524\lectures\cplex.opt"
>>  lpmethod 3
>>  netfind 2
>>  preind 0
>>  names no
Finished reading from "C:\Users\Rocke\OneDrive\Documents\isye524\lectures\cplex.opt"

--- GMO setup time: 0.00s
--- GMO memory 0.50 Mb (peak 0.50 Mb)
--- Dictionary memory 0.00 Mb
--- Cplex 22.1.1.0 link memory 0.00 Mb (peak 0.00 Mb)
--- Starting Cplex

Version identifier: 22.1.1.0 | 2022-11-27 | 9160aff4d
CPXPARAM_Advance                                 2
CPXPARAM_Simplex_Display                         2
CPXPARAM_Preprocessing_Presolve                  0
CPXPARAM_LPMethod                                3
CPXPARAM_Threads                                 1
CPXPARAM_MIP_Display                             4
CPXPARAM_MIP_Pool_Capacity                       0
CPXPARAM_MIP_Tolerances_AbsMIPGap                0
Extracted network with 8 nodes and 11 arcs.
Extraction time = 0.00 sec. (0.00 ticks)

Iteration log . . .
Iteration:     0   Infeasibility     =             8.458212 (209)

Network - Optimal:  Objective =    2.2256324757e+02
Network time = 0.00 sec. (0.00 ticks)  Iterations = 3 (3)

--- LP status (1): optimal.
--- Cplex Time: 0.00sec (det. 0.00 ticks)


Optimal solution found
Objective:          222.563248

--- Reading solution for model mcf
--- Executing after solve: elapsed 0:00:00.098
--- mincost2.gms(51) 4 Mb
--- Generating LP model mcf
--- mincost2.gms(56) 4 Mb
--- LOOPS iter = iter2
---   9 rows  12 columns  34 non-zeroes
--- Range statistics (absolute non-zero finite values)
--- RHS       [min, max] : [ 6.000E+00, 1.500E+01] - Zero values observed as well
--- Bound     [min, max] : [ 4.336E+00, 1.500E+01] - Zero values observed as well
--- Matrix    [min, max] : [ 1.000E+00, 6.000E+00]
--- Executing CPLEX (Solvelink=2): elapsed 0:00:00.101

IBM ILOG CPLEX   44.3.0 8b8fb1cb Sep 1, 2023           WEI x86 64bit/MS Window

--- GAMS/CPLEX licensed for continuous and discrete problems.

Reading parameter(s) from "C:\Users\Rocke\OneDrive\Documents\isye524\lectures\cplex.opt"
>>  lpmethod 3
>>  netfind 2
>>  preind 0
>>  names no
Finished reading from "C:\Users\Rocke\OneDrive\Documents\isye524\lectures\cplex.opt"

--- GMO setup time: 0.00s
--- GMO memory 0.50 Mb (peak 0.50 Mb)
--- Dictionary memory 0.00 Mb
--- Cplex 22.1.1.0 link memory 0.00 Mb (peak 0.00 Mb)
--- Starting Cplex

Version identifier: 22.1.1.0 | 2022-11-27 | 9160aff4d
CPXPARAM_Advance                                 2
CPXPARAM_Simplex_Display                         2
CPXPARAM_Preprocessing_Presolve                  0
CPXPARAM_LPMethod                                3
CPXPARAM_Threads                                 1
CPXPARAM_MIP_Display                             4
CPXPARAM_MIP_Pool_Capacity                       0
CPXPARAM_MIP_Tolerances_AbsMIPGap                0
Extracted network with 8 nodes and 11 arcs.
Extraction time = 0.00 sec. (0.00 ticks)

Iteration log . . .
Iteration:     0   Infeasibility     =             9.646582 (193.339)

Network - Optimal:  Objective =    2.1814862982e+02
Network time = 0.00 sec. (0.00 ticks)  Iterations = 3 (3)

--- LP status (1): optimal.
--- Cplex Time: 0.00sec (det. 0.00 ticks)


Optimal solution found
Objective:          218.148630

--- Reading solution for model mcf
--- Executing after solve: elapsed 0:00:00.132
--- mincost2.gms(51) 4 Mb
--- Generating LP model mcf
--- mincost2.gms(56) 4 Mb
--- LOOPS iter = iter3
---   9 rows  12 columns  34 non-zeroes
--- Range statistics (absolute non-zero finite values)
--- RHS       [min, max] : [ 6.000E+00, 1.500E+01] - Zero values observed as well
--- Bound     [min, max] : [ 3.181E+00, 1.500E+01] - Zero values observed as well
--- Matrix    [min, max] : [ 1.000E+00, 6.000E+00]
--- Executing CPLEX (Solvelink=2): elapsed 0:00:00.134

IBM ILOG CPLEX   44.3.0 8b8fb1cb Sep 1, 2023           WEI x86 64bit/MS Window

--- GAMS/CPLEX licensed for continuous and discrete problems.

Reading parameter(s) from "C:\Users\Rocke\OneDrive\Documents\isye524\lectures\cplex.opt"
>>  lpmethod 3
>>  netfind 2
>>  preind 0
>>  names no
Finished reading from "C:\Users\Rocke\OneDrive\Documents\isye524\lectures\cplex.opt"

--- GMO setup time: 0.00s
--- GMO memory 0.50 Mb (peak 0.50 Mb)
--- Dictionary memory 0.00 Mb
--- Cplex 22.1.1.0 link memory 0.00 Mb (peak 0.00 Mb)
--- Starting Cplex

Version identifier: 22.1.1.0 | 2022-11-27 | 9160aff4d
CPXPARAM_Advance                                 2
CPXPARAM_Simplex_Display                         2
CPXPARAM_Preprocessing_Presolve                  0
CPXPARAM_LPMethod                                3
CPXPARAM_Threads                                 1
CPXPARAM_MIP_Display                             4
CPXPARAM_MIP_Pool_Capacity                       0
CPXPARAM_MIP_Tolerances_AbsMIPGap                0
Extracted network with 8 nodes and 11 arcs.
Extraction time = 0.00 sec. (0.00 ticks)

Iteration log . . .
Iteration:     0   Infeasibility     =             6.225538 (209.18)

Network - Infeasible:  Infeasibility =    2.8704925200e-01
Network time = 0.00 sec. (0.00 ticks)  Iterations = 3 (3)

Iteration      Dual Objective            In Variable           Out Variable
     1  I            4.000000                     x3                     x4
     2  I            0.000000                     x9                     x6
     3             231.685395                    x10                     x5
     4             233.255071                     x4                     x3

--- LP status (3): infeasible.
--- Cplex Time: 0.00sec (det. 0.01 ticks)


Model has been proven infeasible

--- Reading solution for model mcf
--- Executing after solve: elapsed 0:00:00.173
--- mincost2.gms(51) 4 Mb
--- Generating LP model mcf
--- mincost2.gms(56) 4 Mb
--- LOOPS iter = iter4
---   9 rows  12 columns  34 non-zeroes
--- Range statistics (absolute non-zero finite values)
--- RHS       [min, max] : [ 6.000E+00, 1.500E+01] - Zero values observed as well
--- Bound     [min, max] : [ 3.054E+00, 1.500E+01] - Zero values observed as well
--- Matrix    [min, max] : [ 1.000E+00, 6.000E+00]
--- Executing CPLEX (Solvelink=2): elapsed 0:00:00.177

IBM ILOG CPLEX   44.3.0 8b8fb1cb Sep 1, 2023           WEI x86 64bit/MS Window

--- GAMS/CPLEX licensed for continuous and discrete problems.

Reading parameter(s) from "C:\Users\Rocke\OneDrive\Documents\isye524\lectures\cplex.opt"
>>  lpmethod 3
>>  netfind 2
>>  preind 0
>>  names no
Finished reading from "C:\Users\Rocke\OneDrive\Documents\isye524\lectures\cplex.opt"

--- GMO setup time: 0.00s
--- GMO memory 0.50 Mb (peak 0.50 Mb)
--- Dictionary memory 0.00 Mb
--- Cplex 22.1.1.0 link memory 0.00 Mb (peak 0.00 Mb)
--- Starting Cplex

Version identifier: 22.1.1.0 | 2022-11-27 | 9160aff4d
CPXPARAM_Advance                                 2
CPXPARAM_Simplex_Display                         2
CPXPARAM_Preprocessing_Presolve                  0
CPXPARAM_LPMethod                                3
CPXPARAM_Threads                                 1
CPXPARAM_MIP_Display                             4
CPXPARAM_MIP_Pool_Capacity                       0
CPXPARAM_MIP_Tolerances_AbsMIPGap                0
Extracted network with 8 nodes and 11 arcs.
Extraction time = 0.00 sec. (0.00 ticks)

Iteration log . . .
Iteration:     0   Infeasibility     =             2.538922 (211.634)

Network - Optimal:  Objective =    2.1866044011e+02
Network time = 0.00 sec. (0.00 ticks)  Iterations = 2 (2)

--- LP status (1): optimal.
--- Cplex Time: 0.00sec (det. 0.00 ticks)


Optimal solution found
Objective:          218.660440

--- Reading solution for model mcf
--- Executing after solve: elapsed 0:00:00.213
--- mincost2.gms(51) 4 Mb
--- Generating LP model mcf
--- mincost2.gms(56) 4 Mb
--- LOOPS iter = iter5
---   9 rows  12 columns  34 non-zeroes
--- Range statistics (absolute non-zero finite values)
--- RHS       [min, max] : [ 6.000E+00, 1.500E+01] - Zero values observed as well
--- Bound     [min, max] : [ 3.570E+00, 1.500E+01] - Zero values observed as well
--- Matrix    [min, max] : [ 1.000E+00, 6.000E+00]
--- Executing CPLEX (Solvelink=2): elapsed 0:00:00.215

IBM ILOG CPLEX   44.3.0 8b8fb1cb Sep 1, 2023           WEI x86 64bit/MS Window

--- GAMS/CPLEX licensed for continuous and discrete problems.

Reading parameter(s) from "C:\Users\Rocke\OneDrive\Documents\isye524\lectures\cplex.opt"
>>  lpmethod 3
>>  netfind 2
>>  preind 0
>>  names no
Finished reading from "C:\Users\Rocke\OneDrive\Documents\isye524\lectures\cplex.opt"

--- GMO setup time: 0.00s
--- GMO memory 0.50 Mb (peak 0.50 Mb)
--- Dictionary memory 0.00 Mb
--- Cplex 22.1.1.0 link memory 0.00 Mb (peak 0.00 Mb)
--- Starting Cplex

Version identifier: 22.1.1.0 | 2022-11-27 | 9160aff4d
CPXPARAM_Advance                                 2
CPXPARAM_Simplex_Display                         2
CPXPARAM_Preprocessing_Presolve                  0
CPXPARAM_LPMethod                                3
CPXPARAM_Threads                                 1
CPXPARAM_MIP_Display                             4
CPXPARAM_MIP_Pool_Capacity                       0
CPXPARAM_MIP_Tolerances_AbsMIPGap                0
Extracted network with 8 nodes and 11 arcs.
Extraction time = 0.00 sec. (0.00 ticks)

Iteration log . . .
Iteration:     0   Infeasibility     =             9.760418 (192.339)

Network - Infeasible:  Infeasibility =    3.5582826600e+00
Network time = 0.00 sec. (0.00 ticks)  Iterations = 4 (4)

Iteration      Dual Objective            In Variable           Out Variable
     1  I            0.000000                     x3                     x4
     2             217.815309                     x4                     x7

--- LP status (3): infeasible.
--- Cplex Time: 0.00sec (det. 0.01 ticks)


Model has been proven infeasible

--- Reading solution for model mcf
--- Executing after solve: elapsed 0:00:00.250
--- mincost2.gms(51) 4 Mb
--- Generating LP model mcf
--- mincost2.gms(56) 4 Mb
--- LOOPS iter = iter6
---   9 rows  12 columns  34 non-zeroes
--- Range statistics (absolute non-zero finite values)
--- RHS       [min, max] : [ 6.000E+00, 1.500E+01] - Zero values observed as well
--- Bound     [min, max] : [ 3.773E+00, 1.500E+01] - Zero values observed as well
--- Matrix    [min, max] : [ 1.000E+00, 6.000E+00]
--- Executing CPLEX (Solvelink=2): elapsed 0:00:00.252

IBM ILOG CPLEX   44.3.0 8b8fb1cb Sep 1, 2023           WEI x86 64bit/MS Window

--- GAMS/CPLEX licensed for continuous and discrete problems.

Reading parameter(s) from "C:\Users\Rocke\OneDrive\Documents\isye524\lectures\cplex.opt"
>>  lpmethod 3
>>  netfind 2
>>  preind 0
>>  names no
Finished reading from "C:\Users\Rocke\OneDrive\Documents\isye524\lectures\cplex.opt"

--- GMO setup time: 0.00s
--- GMO memory 0.50 Mb (peak 0.50 Mb)
--- Dictionary memory 0.00 Mb
--- Cplex 22.1.1.0 link memory 0.00 Mb (peak 0.00 Mb)
--- Starting Cplex

Version identifier: 22.1.1.0 | 2022-11-27 | 9160aff4d
CPXPARAM_Advance                                 2
CPXPARAM_Simplex_Display                         2
CPXPARAM_Preprocessing_Presolve                  0
CPXPARAM_LPMethod                                3
CPXPARAM_Threads                                 1
CPXPARAM_MIP_Display                             4
CPXPARAM_MIP_Pool_Capacity                       0
CPXPARAM_MIP_Tolerances_AbsMIPGap                0
Extracted network with 8 nodes and 11 arcs.
Extraction time = 0.00 sec. (0.00 ticks)

Iteration log . . .
Iteration:     0   Infeasibility     =            26.625893 (211.503)

Network - Infeasible:  Infeasibility =    4.9476414040e+00
Network time = 0.00 sec. (0.00 ticks)  Iterations = 5 (5)

--- LP status (3): infeasible.
--- Cplex Time: 0.00sec (det. 0.00 ticks)


Model has been proven infeasible

--- Reading solution for model mcf
--- Executing after solve: elapsed 0:00:00.285
--- mincost2.gms(51) 4 Mb
--- Generating LP model mcf
--- mincost2.gms(56) 4 Mb
--- LOOPS iter = iter7
---   9 rows  12 columns  34 non-zeroes
--- Range statistics (absolute non-zero finite values)
--- RHS       [min, max] : [ 6.000E+00, 1.500E+01] - Zero values observed as well
--- Bound     [min, max] : [ 7.096E+00, 1.500E+01] - Zero values observed as well
--- Matrix    [min, max] : [ 1.000E+00, 6.000E+00]
--- Executing CPLEX (Solvelink=2): elapsed 0:00:00.287

IBM ILOG CPLEX   44.3.0 8b8fb1cb Sep 1, 2023           WEI x86 64bit/MS Window

--- GAMS/CPLEX licensed for continuous and discrete problems.

Reading parameter(s) from "C:\Users\Rocke\OneDrive\Documents\isye524\lectures\cplex.opt"
>>  lpmethod 3
>>  netfind 2
>>  preind 0
>>  names no
Finished reading from "C:\Users\Rocke\OneDrive\Documents\isye524\lectures\cplex.opt"

--- GMO setup time: 0.00s
--- GMO memory 0.50 Mb (peak 0.50 Mb)
--- Dictionary memory 0.00 Mb
--- Cplex 22.1.1.0 link memory 0.00 Mb (peak 0.00 Mb)
--- Starting Cplex

Version identifier: 22.1.1.0 | 2022-11-27 | 9160aff4d
CPXPARAM_Advance                                 2
CPXPARAM_Simplex_Display                         2
CPXPARAM_Preprocessing_Presolve                  0
CPXPARAM_LPMethod                                3
CPXPARAM_Threads                                 1
CPXPARAM_MIP_Display                             4
CPXPARAM_MIP_Pool_Capacity                       0
CPXPARAM_MIP_Tolerances_AbsMIPGap                0
Extracted network with 8 nodes and 11 arcs.
Extraction time = 0.00 sec. (0.00 ticks)

Iteration log . . .
Iteration:     0   Infeasibility     =             3.055068 (213.534)

Network - Optimal:  Objective =    2.2043815324e+02
Network time = 0.00 sec. (0.00 ticks)  Iterations = 2 (2)

--- LP status (1): optimal.
--- Cplex Time: 0.00sec (det. 0.00 ticks)


Optimal solution found
Objective:          220.438153

--- Reading solution for model mcf
--- Executing after solve: elapsed 0:00:00.317
--- mincost2.gms(51) 4 Mb
--- Generating LP model mcf
--- mincost2.gms(56) 4 Mb
--- LOOPS iter = iter8
---   9 rows  12 columns  34 non-zeroes
--- Range statistics (absolute non-zero finite values)
--- RHS       [min, max] : [ 6.000E+00, 1.500E+01] - Zero values observed as well
--- Bound     [min, max] : [ 4.377E+00, 1.500E+01] - Zero values observed as well
--- Matrix    [min, max] : [ 1.000E+00, 6.000E+00]
--- Executing CPLEX (Solvelink=2): elapsed 0:00:00.319

IBM ILOG CPLEX   44.3.0 8b8fb1cb Sep 1, 2023           WEI x86 64bit/MS Window

--- GAMS/CPLEX licensed for continuous and discrete problems.

Reading parameter(s) from "C:\Users\Rocke\OneDrive\Documents\isye524\lectures\cplex.opt"
>>  lpmethod 3
>>  netfind 2
>>  preind 0
>>  names no
Finished reading from "C:\Users\Rocke\OneDrive\Documents\isye524\lectures\cplex.opt"

--- GMO setup time: 0.00s
--- GMO memory 0.50 Mb (peak 0.50 Mb)
--- Dictionary memory 0.00 Mb
--- Cplex 22.1.1.0 link memory 0.00 Mb (peak 0.00 Mb)
--- Starting Cplex

Version identifier: 22.1.1.0 | 2022-11-27 | 9160aff4d
CPXPARAM_Advance                                 2
CPXPARAM_Simplex_Display                         2
CPXPARAM_Preprocessing_Presolve                  0
CPXPARAM_LPMethod                                3
CPXPARAM_Threads                                 1
CPXPARAM_MIP_Display                             4
CPXPARAM_MIP_Pool_Capacity                       0
CPXPARAM_MIP_Tolerances_AbsMIPGap                0
Extracted network with 8 nodes and 11 arcs.
Extraction time = 0.00 sec. (0.00 ticks)

Iteration log . . .
Iteration:     0   Infeasibility     =             4.247168 (217.842)

Network - Infeasible:  Infeasibility =    2.4096339960e+00
Network time = 0.00 sec. (0.00 ticks)  Iterations = 1 (1)

Iteration      Dual Objective            In Variable           Out Variable
     1  I            0.000000                     x3                     x4
     2             223.895640                    x10                     x6
     3             228.142808                     x4                     x7

--- LP status (3): infeasible.
--- Cplex Time: 0.00sec (det. 0.01 ticks)


Model has been proven infeasible

--- Reading solution for model mcf
--- Executing after solve: elapsed 0:00:00.347
--- mincost2.gms(51) 4 Mb
--- Generating LP model mcf
--- mincost2.gms(56) 4 Mb
--- LOOPS iter = iter9
---   9 rows  12 columns  34 non-zeroes
--- Range statistics (absolute non-zero finite values)
--- RHS       [min, max] : [ 6.000E+00, 1.500E+01] - Zero values observed as well
--- Bound     [min, max] : [ 3.397E+00, 1.500E+01] - Zero values observed as well
--- Matrix    [min, max] : [ 1.000E+00, 6.000E+00]
--- Executing CPLEX (Solvelink=2): elapsed 0:00:00.348

IBM ILOG CPLEX   44.3.0 8b8fb1cb Sep 1, 2023           WEI x86 64bit/MS Window

--- GAMS/CPLEX licensed for continuous and discrete problems.

Reading parameter(s) from "C:\Users\Rocke\OneDrive\Documents\isye524\lectures\cplex.opt"
>>  lpmethod 3
>>  netfind 2
>>  preind 0
>>  names no
Finished reading from "C:\Users\Rocke\OneDrive\Documents\isye524\lectures\cplex.opt"

--- GMO setup time: 0.00s
--- GMO memory 0.50 Mb (peak 0.50 Mb)
--- Dictionary memory 0.00 Mb
--- Cplex 22.1.1.0 link memory 0.00 Mb (peak 0.00 Mb)
--- Starting Cplex

Version identifier: 22.1.1.0 | 2022-11-27 | 9160aff4d
CPXPARAM_Advance                                 2
CPXPARAM_Simplex_Display                         2
CPXPARAM_Preprocessing_Presolve                  0
CPXPARAM_LPMethod                                3
CPXPARAM_Threads                                 1
CPXPARAM_MIP_Display                             4
CPXPARAM_MIP_Pool_Capacity                       0
CPXPARAM_MIP_Tolerances_AbsMIPGap                0
Extracted network with 8 nodes and 11 arcs.
Extraction time = 0.00 sec. (0.00 ticks)

Iteration log . . .
Iteration:     0   Infeasibility     =             2.563716 (240.689)

Network - Infeasible:  Infeasibility =    2.5637156160e+00
Network time = 0.00 sec. (0.00 ticks)  Iterations = 0 (0)

--- LP status (3): infeasible.
--- Cplex Time: 0.00sec (det. 0.00 ticks)


Model has been proven infeasible

--- Reading solution for model mcf
--- Executing after solve: elapsed 0:00:00.381
--- mincost2.gms(51) 4 Mb
--- Generating LP model mcf
--- mincost2.gms(56) 4 Mb
--- LOOPS iter = iter10
---   9 rows  12 columns  34 non-zeroes
--- Range statistics (absolute non-zero finite values)
--- RHS       [min, max] : [ 6.000E+00, 1.500E+01] - Zero values observed as well
--- Bound     [min, max] : [ 5.015E+00, 1.500E+01] - Zero values observed as well
--- Matrix    [min, max] : [ 1.000E+00, 6.000E+00]
--- Executing CPLEX (Solvelink=2): elapsed 0:00:00.393

IBM ILOG CPLEX   44.3.0 8b8fb1cb Sep 1, 2023           WEI x86 64bit/MS Window

--- GAMS/CPLEX licensed for continuous and discrete problems.

Reading parameter(s) from "C:\Users\Rocke\OneDrive\Documents\isye524\lectures\cplex.opt"
>>  lpmethod 3
>>  netfind 2
>>  preind 0
>>  names no
Finished reading from "C:\Users\Rocke\OneDrive\Documents\isye524\lectures\cplex.opt"

--- GMO setup time: 0.00s
--- GMO memory 0.50 Mb (peak 0.50 Mb)
--- Dictionary memory 0.00 Mb
--- Cplex 22.1.1.0 link memory 0.00 Mb (peak 0.00 Mb)
--- Starting Cplex

Version identifier: 22.1.1.0 | 2022-11-27 | 9160aff4d
CPXPARAM_Advance                                 2
CPXPARAM_Simplex_Display                         2
CPXPARAM_Preprocessing_Presolve                  0
CPXPARAM_LPMethod                                3
CPXPARAM_Threads                                 1
CPXPARAM_MIP_Display                             4
CPXPARAM_MIP_Pool_Capacity                       0
CPXPARAM_MIP_Tolerances_AbsMIPGap                0
Extracted network with 8 nodes and 11 arcs.
Extraction time = 0.00 sec. (0.00 ticks)

Iteration log . . .
Iteration:     0   Infeasibility     =            12.388626 (295.913)

Network - Optimal:  Objective =    2.1897082701e+02
Network time = 0.00 sec. (0.00 ticks)  Iterations = 6 (4)

--- LP status (1): optimal.
--- Cplex Time: 0.00sec (det. 0.00 ticks)


Optimal solution found
Objective:          218.970827

--- Reading solution for model mcf
--- Executing after solve: elapsed 0:00:00.434
--- mincost2.gms(62) 4 Mb
*** Status: Normal completion
--- Job mincost2.gms Stop 10/03/23 13:10:12 elapsed 0:00:00.434
